# Solution for model PDMTZ_aux
# Objective value = 7.0163202351540269e+02
ugi[11,101] 0
ugi[11,103] 1
ugi[11,106] 0
ugi[11,107] 0
ugi[11,202] 0
ugi[11,203] 0
ugi[11,204] 0
ugi[11,205] 0
ugi[11,207] 0
ugi[11,307] 0
ugi[11,405] 0
ugi[11,505] 0
dgLi[11,101] 5.0092115697588717e+00
dgLi[11,103] 3.7159718906528769e+00
dgLi[11,106] 5.0092115697588717e+00
dgLi[11,107] 5.0092115697588717e+00
dgLi[11,202] 5.0092115697588717e+00
dgLi[11,203] 5.0092115697588717e+00
dgLi[11,204] 5.0092115697588717e+00
dgLi[11,205] 5.0092115697588717e+00
dgLi[11,207] 5.0092115697588717e+00
dgLi[11,307] 5.4149650466198507e+00
dgLi[11,405] 3.7563053570316738e+00
dgLi[11,505] 6.9261122189541080e+00
difgLi[11,101,0] 3.60871638573013
difgLi[11,101,1] 2.7786545924989525e+00
difgLi[11,103,0] 1.4954076049470739e+00
difgLi[11,103,1] 3.4017946863139161e+00
difgLi[11,106,0] 3.6087163857301334e+00
difgLi[11,106,1] 2.7786545924989348e+00
difgLi[11,107,0] 3.6087163857300482e+00
difgLi[11,107,1] 2.7786545924989454e+00
difgLi[11,202,0] 3.4372481393261749e+00
difgLi[11,202,1] 3.6438345412324509e+00
difgLi[11,203,0] 3.4372481393261296e+00
difgLi[11,203,1] 3.6438345412324651e+00
difgLi[11,204,0] 3.4372481393261585e+00
difgLi[11,204,1] 3.6438345412324509e+00
difgLi[11,205,0] 3.4372481393261438e+00
difgLi[11,205,1] 3.6438345412324651e+00
difgLi[11,207,0] 3.4372481393261580e+00
difgLi[11,207,1] 3.6438345412324509e+00
difgLi[11,307,0] 4.6894213432655079e+00
difgLi[11,307,1] 2.7076148059604153e+00
difgLi[11,405,0] 3.4786999957044884e-01
difgLi[11,405,1] 3.7401629823116309e+00
difgLi[11,505,0] 3.8873555445110810e+00
difgLi[11,505,1] 5.7323208818849158e+00
pgLi[11,101] 0
pgLi[11,103] 3.7159718906528769e+00
pgLi[11,106] 0
pgLi[11,107] 0
pgLi[11,202] 0
pgLi[11,203] 0
pgLi[11,204] 0
pgLi[11,205] 0
pgLi[11,207] 0
pgLi[11,307] 4.0575347686097896e-01
pgLi[11,405] 0
pgLi[11,505] 1.9169006491952363e+00
vgi[11,101] 0
vgi[11,103] 0
vgi[11,106] 0
vgi[11,107] 0
vgi[11,202] 0
vgi[11,203] 0
vgi[11,204] 0
vgi[11,205] 0
vgi[11,207] 0
vgi[11,307] 0
vgi[11,405] 1
vgi[11,505] 0
dgRi[11,101] 5.0092115697588717e+00
dgRi[11,103] 5.0092115697588717e+00
dgRi[11,106] 5.0092115697588717e+00
dgRi[11,107] 5.0092115697588717e+00
dgRi[11,202] 5.0092115697588717e+00
dgRi[11,203] 5.0092115697588717e+00
dgRi[11,204] 5.0092115697588717e+00
dgRi[11,205] 5.0092115697588717e+00
dgRi[11,207] 5.0092115697588717e+00
dgRi[11,307] 5.5919442767283627e+00
dgRi[11,405] 3.3691637527882352e+00
dgRi[11,505] 6.7858842209206944e+00
difgRi[11,101,0] 3.8692867667148221e+00
difgRi[11,101,1] 3.1813250466721712e+00
difgRi[11,103,0] 4.0407550131188259e+00
difgRi[11,103,1] 2.3161450979386871e+00
difgRi[11,106,0] 4.4415844510953892e+00
difgRi[11,106,1] 2.3161450979386728e+00
difgRi[11,107,0] 4.0407550131187264e+00
difgRi[11,107,1] 2.3161450979386871e+00
difgRi[11,202,0] 3.8692867667148505e+00
difgRi[11,202,1] 3.1813250466721854e+00
difgRi[11,203,0] 0.779908626958786
difgRi[11,203,1] 3.2776534877513797e+00
difgRi[11,204,0] 3.8692867667148363e+00
difgRi[11,204,1] 3.1813250466721854e+00
difgRi[11,205,0] 3.8692867667148221e+00
difgRi[11,205,1] 3.1813250466721996e+00
difgRi[11,207,0] 3.8692867667148363e+00
difgRi[11,207,1] 3.1813250466721854e+00
difgRi[11,307,0] 5.1214599706541861e+00
difgRi[11,307,1] 2.2451053114001525e+00
difgRi[11,405,0] 7.7990862695912011e-01
difgRi[11,405,1] 3.2776534877513717e+00
difgRi[11,505,0] 3.8110716011599095e+00
difgRi[11,505,1] 5.6146209444345141e+00
pgRi[11,101] 0
pgRi[11,103] 0
pgRi[11,106] 0
pgRi[11,107] 0
pgRi[11,202] 0
pgRi[11,203] 0
pgRi[11,204] 0
pgRi[11,205] 0
pgRi[11,207] 0
pgRi[11,307] 0.582732706969491
pgRi[11,405] 3.3691637527882352e+00
pgRi[11,505] 1.7766726511618227e+00
zgij[11,101,103] 0
zgij[11,101,106] 0
zgij[11,101,107] 0
zgij[11,101,202] 1
zgij[11,101,203] 0
zgij[11,101,204] 0
zgij[11,101,205] 0
zgij[11,101,207] 0
zgij[11,101,307] 0
zgij[11,101,405] 0
zgij[11,101,505] 0
zgij[11,103,101] 1
zgij[11,103,106] 0
zgij[11,103,107] 0
zgij[11,103,202] 0
zgij[11,103,203] 0
zgij[11,103,204] 0
zgij[11,103,205] 0
zgij[11,103,207] 0
zgij[11,103,307] 0
zgij[11,103,405] 0
zgij[11,103,505] 0
zgij[11,106,101] 0
zgij[11,106,103] 0
zgij[11,106,107] 0
zgij[11,106,202] 0
zgij[11,106,203] 0
zgij[11,106,204] 0
zgij[11,106,205] 0
zgij[11,106,207] 0
zgij[11,106,307] 0
zgij[11,106,405] 0
zgij[11,106,505] 0
zgij[11,107,101] 0
zgij[11,107,103] 0
zgij[11,107,106] 0
zgij[11,107,202] 0
zgij[11,107,203] 0
zgij[11,107,204] 0
zgij[11,107,205] 0
zgij[11,107,207] 0
zgij[11,107,307] 0
zgij[11,107,405] 0
zgij[11,107,505] 0
zgij[11,202,101] 0
zgij[11,202,103] 0
zgij[11,202,106] 0
zgij[11,202,107] 0
zgij[11,202,203] 0
zgij[11,202,204] 1
zgij[11,202,205] 0
zgij[11,202,207] 0
zgij[11,202,307] 0
zgij[11,202,405] 0
zgij[11,202,505] 0
zgij[11,203,101] 0
zgij[11,203,103] 0
zgij[11,203,106] 0
zgij[11,203,107] 0
zgij[11,203,202] 0
zgij[11,203,204] 0
zgij[11,203,205] 0
zgij[11,203,207] 0
zgij[11,203,307] 0
zgij[11,203,405] 1
zgij[11,203,505] 0
zgij[11,204,101] 0
zgij[11,204,103] 0
zgij[11,204,106] 0
zgij[11,204,107] 0
zgij[11,204,202] 0
zgij[11,204,203] 0
zgij[11,204,205] 1
zgij[11,204,207] 0
zgij[11,204,307] 0
zgij[11,204,405] 0
zgij[11,204,505] 0
zgij[11,205,101] 0
zgij[11,205,103] 0
zgij[11,205,106] 0
zgij[11,205,107] 0
zgij[11,205,202] 0
zgij[11,205,203] 1
zgij[11,205,204] 0
zgij[11,205,207] 0
zgij[11,205,307] 0
zgij[11,205,405] 0
zgij[11,205,505] 0
zgij[11,207,101] 0
zgij[11,207,103] 0
zgij[11,207,106] 0
zgij[11,207,107] 0
zgij[11,207,202] 0
zgij[11,207,203] 0
zgij[11,207,204] 0
zgij[11,207,205] 0
zgij[11,207,307] 0
zgij[11,207,405] 0
zgij[11,207,505] 0
zgij[11,307,101] 0
zgij[11,307,103] 0
zgij[11,307,106] 0
zgij[11,307,107] 0
zgij[11,307,202] 0
zgij[11,307,203] 0
zgij[11,307,204] 0
zgij[11,307,205] 0
zgij[11,307,207] 0
zgij[11,307,405] 0
zgij[11,307,505] 0
zgij[11,405,101] 0
zgij[11,405,103] 0
zgij[11,405,106] 0
zgij[11,405,107] 0
zgij[11,405,202] 0
zgij[11,405,203] 0
zgij[11,405,204] 0
zgij[11,405,205] 0
zgij[11,405,207] 0
zgij[11,405,307] 0
zgij[11,405,505] 0
zgij[11,505,101] 0
zgij[11,505,103] 0
zgij[11,505,106] 0
zgij[11,505,107] 0
zgij[11,505,202] 0
zgij[11,505,203] 0
zgij[11,505,204] 0
zgij[11,505,205] 0
zgij[11,505,207] 0
zgij[11,505,307] 0
zgij[11,505,405] 0
sgi[11,101] 1
sgi[11,103] 0
sgi[11,106] 0
sgi[11,107] 0
sgi[11,202] 2
sgi[11,203] 10
sgi[11,204] 3
sgi[11,205] 9
sgi[11,207] 0
sgi[11,307] 11
sgi[11,405] 11
sgi[11,505] 0
dgij[11,101,103] 3.3996496198595274e+00
dgij[11,101,106] 0.882007768228468
dgij[11,101,107] 1.5634721377039542e+00
dgij[11,101,202] 0
dgij[11,101,203] 3.3996496198595274e+00
dgij[11,101,204] 2.7500394328242543e+00
dgij[11,101,205] 0
dgij[11,101,207] 1.5634721377039542e+00
dgij[11,101,307] 1.5634721377039624e+00
dgij[11,101,405] 3.0908795607336672e+00
dgij[11,101,505] 2.1364385605750020e+00
dgij[11,103,101] 0
dgij[11,103,106] 0
dgij[11,103,107] 4.4626476229282
dgij[11,103,202] 8.8200776822846794e-01
dgij[11,103,203] 3.3996496198595274e+00
dgij[11,103,204] 8.8200776822846794e-01
dgij[11,103,205] 0.882007768228479
dgij[11,103,207] 8.8200776822846794e-01
dgij[11,103,307] 1.0830373292333246e+00
dgij[11,103,405] 3.3996496198595683e+00
dgij[11,103,505] 2.9667798047339211e+00
dgij[11,106,101] 0
dgij[11,106,103] 4.1741692290627066e+00
dgij[11,106,107] -1.7016301167463468e-13
dgij[11,106,202] 0.882007768228471
dgij[11,106,203] 8.8200776822838256e-01
dgij[11,106,204] 8.8200776822847637e-01
dgij[11,106,205] 8.8200776822843463e-01
dgij[11,106,207] 8.8200776822847637e-01
dgij[11,106,307] 1.0830373292334090e+00
dgij[11,106,405] 3.7420865335063485e+00
dgij[11,106,505] 2.9667798047339358e+00
dgij[11,107,101] 1.5634721377039542e+00
dgij[11,107,103] 4.4626476229282
dgij[11,107,106] 1.0830373292333673e+00
dgij[11,107,202] 8.8200776822847970e-01
dgij[11,107,203] 8.8200776822836857e-01
dgij[11,107,204] 8.8227076137059590e-01
dgij[11,107,205] 8.8200776822841520e-01
dgij[11,107,207] 1.5634721377039542e+00
dgij[11,107,307] 1.0830373292335518e+00
dgij[11,107,405] 3.3996496198593857e+00
dgij[11,107,505] 4.8774909500931205e+00
dgij[11,202,101] 1.9009451051369710e+00
dgij[11,202,103] 1.9568668713856960e+00
dgij[11,202,106] 0.882007768228469
dgij[11,202,107] 8.8200776822844607e-01
dgij[11,202,203] 4.4017019568432625e+00
dgij[11,202,204] 0
dgij[11,202,205] 0
dgij[11,202,207] 0
dgij[11,202,307] 1.6205105625772789e+00
dgij[11,202,405] 3.2068975557958455e+00
dgij[11,202,505] 2.1364385605749794e+00
dgij[11,203,101] 3.3996496198597193e+00
dgij[11,203,103] 1.1963844112534592e+00
dgij[11,203,106] 3.3996496198595758e+00
dgij[11,203,107] 3.3996496198595723e+00
dgij[11,203,202] 3.0908795607342285e+00
dgij[11,203,204] 3.0908795607337742e+00
dgij[11,203,205] 3.0908795607338453e+00
dgij[11,203,207] 3.0908795607337733e+00
dgij[11,203,307] 4.4626476229282
dgij[11,203,405] 0
dgij[11,203,505] 4.0616067037665493e+00
dgij[11,204,101] 8.8200776822846039e-01
dgij[11,204,103] 1.9568668713856960e+00
dgij[11,204,106] 8.8200776822846194e-01
dgij[11,204,107] 8.8200776822846383e-01
dgij[11,204,202] 0
dgij[11,204,203] 4.3260737924269979e+00
dgij[11,204,205] 0
dgij[11,204,207] 0
dgij[11,204,307] 1.5634721377039540e+00
dgij[11,204,405] 3.2072086023762534e+00
dgij[11,204,505] 3.4812372411458239e+00
dgij[11,205,101] 8.8200776822847926e-01
dgij[11,205,103] 1.9568668713857127e+00
dgij[11,205,106] 8.8200768519527939e-01
dgij[11,205,107] 8.8200768519524353e-01
dgij[11,205,202] 0
dgij[11,205,203] 0
dgij[11,205,204] 0
dgij[11,205,207] 0
dgij[11,205,307] 1.5634721377039797e+00
dgij[11,205,405] 3.6443000206390255e+00
dgij[11,205,505] 3.4812372411458239e+00
dgij[11,207,101] 8.8200776822846194e-01
dgij[11,207,103] 1.9568668713856967e+00
dgij[11,207,106] 8.8200776822847637e-01
dgij[11,207,107] 1.5634721377039542e+00
dgij[11,207,202] 0
dgij[11,207,203] 4.4626476229282
dgij[11,207,204] 0
dgij[11,207,205] 0
dgij[11,207,307] 1.6205105625772789e+00
dgij[11,207,405] 3.1762338737433313e+00
dgij[11,207,505] 2.1364385605749856e+00
dgij[11,307,101] 1.0830373292333921e+00
dgij[11,307,103] 4.4626476229282
dgij[11,307,106] 1.0830373292334008e+00
dgij[11,307,107] 1.9009451051369710e+00
dgij[11,307,202] 1.6205105625772789e+00
dgij[11,307,203] 4.4626476229282
dgij[11,307,204] 1.5634721377039533e+00
dgij[11,307,205] 1.56347213770398
dgij[11,307,207] 1.6205105625772789e+00
dgij[11,307,405] 4.4626476229281939e+00
dgij[11,307,505] 3.1292408188692717e+00
dgij[11,405,101] 3.3996496198595043e+00
dgij[11,405,103] 1.1963844112532911e+00
dgij[11,405,106] 3.3996496198594972e+00
dgij[11,405,107] 3.3996496198593849e+00
dgij[11,405,202] 3.0908795607336956e+00
dgij[11,405,203] 3.6443000206390255e+00
dgij[11,405,204] 3.0908795607336814e+00
dgij[11,405,205] 3.0908795607336517e+00
dgij[11,405,207] 3.0908795607336672e+00
dgij[11,405,307] 4.4626476229281931e+00
dgij[11,405,505] 4.3260737924269979e+00
dgij[11,505,101] 3.3064629711589837e+00
dgij[11,505,103] 3.2719208302846496e+00
dgij[11,505,106] 3.3064629711589983e+00
dgij[11,505,107] 3.3064629711589753e+00
dgij[11,505,202] 2.4339921798493109e+00
dgij[11,505,203] 2.4339921798492941e+00
dgij[11,505,204] 3.4812372411458239e+00
dgij[11,505,205] 3.4812372411458239e+00
dgij[11,505,207] 2.43399217984931
dgij[11,505,307] 3.6153484755235334e+00
dgij[11,505,405] 4.3260737924269979e+00
dgij[11,101,103,0] 1.9418405343791392e+00
dgij[11,101,103,1] 2.4203985491851654e-01
dgij[11,101,106,0] 1.7146824640400382e-01
dgij[11,101,106,1] 8.6517994873349835e-01
dgij[11,101,107,0] 1.7146824640383329e-01
dgij[11,101,107,1] 8.6517994873348414e-01
dgij[11,101,202,0] 0
dgij[11,101,202,1] 0
dgij[11,101,203,0] 0
dgij[11,101,203,1] 0
dgij[11,101,204,0] 0
dgij[11,101,204,1] 0
dgij[11,101,205,0] 0
dgij[11,101,205,1] 0
dgij[11,101,207,0] 0
dgij[11,101,207,1] 0
dgij[11,101,307,0] 1.2521732039393711e+00
dgij[11,101,307,1] 9.3621973527201874e-01
dgij[11,101,405,0] 3.0893781397557021e+00
dgij[11,101,405,1] 9.6328441079194249e-02
dgij[11,101,505,0] 4.5010740518493719e-01
dgij[11,101,505,1] 2.08848634065248
dgij[11,103,101,0] 0
dgij[11,103,101,1] 0
dgij[11,103,106,0] 0
dgij[11,103,106,1] 0
dgij[11,103,107,0] 0
dgij[11,103,107,1] 0
dgij[11,103,202,0] 1.7146824640400382e-01
dgij[11,103,202,1] 8.6517994873349835e-01
dgij[11,103,203,0] 1.7146824640394698e-01
dgij[11,103,203,1] 8.6517994873351256e-01
dgij[11,103,204,0] 1.7146824640400382e-01
dgij[11,103,204,1] 8.6517994873349835e-01
dgij[11,103,205,0] 1.7146824640398961e-01
dgij[11,103,205,1] 8.6517994873351256e-01
dgij[11,103,207,0] 1.7146824640400382e-01
dgij[11,103,207,1] 8.6517994873349835e-01
dgij[11,103,307,0] 1.0807049575353176e+00
dgij[11,103,307,1] 0.0710397865385346
dgij[11,103,405,0] 3.2608463861597556e+00
dgij[11,103,405,1] 9.6150838981267839e-01
dgij[11,103,505,0] 2.7863915878094758e-01
dgij[11,103,505,1] 2.9536662893859642e+00
dgij[11,106,101,0] 0
dgij[11,106,101,1] 0
dgij[11,106,103,0] 2.1133087807831430e+00
dgij[11,106,103,1] 6.2314009381498181e-01
dgij[11,106,107,0] -1.7053025658242404e-13
dgij[11,106,107,1] 0
dgij[11,106,202,0] 1.7146824640394698e-01
dgij[11,106,202,1] 8.6517994873351256e-01
dgij[11,106,203,0] 1.7146824640394698e-01
dgij[11,106,203,1] 8.6517994873352677e-01
dgij[11,106,204,0] 1.7146824640397540e-01
dgij[11,106,204,1] 8.6517994873351256e-01
dgij[11,106,205,0] 1.7146824640398961e-01
dgij[11,106,205,1] 8.6517994873352677e-01
dgij[11,106,207,0] 1.7146824640397540e-01
dgij[11,106,207,1] 8.6517994873351256e-01
dgij[11,106,307,0] 1.0807049575354029e+00
dgij[11,106,307,1] 7.1039786538520389e-02
dgij[11,106,405,0] 3.2608463861596775e+00
dgij[11,106,405,1] 1.83578386763526
dgij[11,106,505,0] 2.7863915878094758e-01
dgij[11,106,505,1] 2.9536662893859784e+00
dgij[11,107,101,0] -1.5276668818842154e-13
dgij[11,107,101,1] 0
dgij[11,107,103,0] 2.1133087807831430e+00
dgij[11,107,103,1] 6.2314009381496760e-01
dgij[11,107,106,0] 2.2737367544323206e-13
dgij[11,107,106,1] 0
dgij[11,107,202,0] 1.7146824640394698e-01
dgij[11,107,202,1] 8.6517994873349835e-01
dgij[11,107,203,0] 1.7146824640394698e-01
dgij[11,107,203,1] 8.6517994873351256e-01
dgij[11,107,204,0] 1.7282104494957798e-01
dgij[11,107,204,1] 8.6517994873349835e-01
dgij[11,107,205,0] 1.7146824640387592e-01
dgij[11,107,205,1] 8.6517994873351256e-01
dgij[11,107,207,0] 1.7146824640394698e-01
dgij[11,107,207,1] 8.6517994873349835e-01
dgij[11,107,307,0] 1.0807049575355450e+00
dgij[11,107,307,1] 0.0710397865385346
dgij[11,107,405,0] 3.2608463861595638e+00
dgij[11,107,405,1] 9.6150838981267839e-01
dgij[11,107,505,0] 2.7863915878106127e-01
dgij[11,107,505,1] 4.8695268140302979e+00
dgij[11,202,101,0] 1.7146824640395764e-01
dgij[11,202,101,1] 8.6517994873349835e-01
dgij[11,202,103,0] 1.9418405343791392e+00
dgij[11,202,103,1] 2.4203985491853075e-01
dgij[11,202,106,0] 1.7146824640394698e-01
dgij[11,202,106,1] 8.6517994873351256e-01
dgij[11,202,107,0] 1.7146824640389013e-01
dgij[11,202,107,1] 8.6517994873349835e-01
dgij[11,202,203,0] 4.5474735088646412e-13
dgij[11,202,203,1] 0
dgij[11,202,204,0] 0
dgij[11,202,204,1] 0
dgij[11,202,205,0] 0
dgij[11,202,205,1] 0
dgij[11,202,207,0] 0
dgij[11,202,207,1] 0
dgij[11,202,307,0] 1.2521732039393498e+00
dgij[11,202,307,1] 0.936219735272033
dgij[11,202,405,0] 3.0893781397557305e+00
dgij[11,202,405,1] 8.6019591174054333e-01
dgij[11,202,505,0] 4.5010740518489456e-01
dgij[11,202,505,1] 2.0884863406524659e+00
dgij[11,203,101,0] 3.2608463861599084e+00
dgij[11,203,101,1] 9.6150838981269260e-01
dgij[11,203,103,0] 1.1475376053767832e+00
dgij[11,203,103,1] 0.338368295997725
dgij[11,203,106,0] 3.2608463861597556e+00
dgij[11,203,106,1] 9.6150838981270681e-01
dgij[11,203,107,0] 3.2608463861597556e+00
dgij[11,203,107,1] 9.6150838981269260e-01
dgij[11,203,202,0] 3.0893781397562634e+00
dgij[11,203,202,1] 9.6328441079194249e-02
dgij[11,203,204,0] 3.0893781397558087e+00
dgij[11,203,204,1] 9.6328441079194249e-02
dgij[11,203,205,0] 3.0893781397558797e+00
dgij[11,203,205,1] 9.6328441079180038e-02
dgij[11,203,207,0] 3.0893781397558087e+00
dgij[11,203,207,1] 9.6328441079194249e-02
dgij[11,203,307,0] 4.3415513436953006e+00
dgij[11,203,307,1] 1.0325481763512272e+00
dgij[11,203,405,0] 0
dgij[11,203,405,1] 0
dgij[11,203,505,0] 3.5394855449408169e+00
dgij[11,203,505,1] 1.9921578995732716e+00
dgij[11,204,101,0] 1.7146824640396474e-01
dgij[11,204,101,1] 8.6517994873349835e-01
dgij[11,204,103,0] 1.9418405343791392e+00
dgij[11,204,103,1] 2.4203985491853075e-01
dgij[11,204,106,0] 1.7146824640398250e-01
dgij[11,204,106,1] 8.6517994873351256e-01
dgij[11,204,107,0] 1.7146824640398250e-01
dgij[11,204,107,1] 8.6517994873349835e-01
dgij[11,204,202,0] 0
dgij[11,204,202,1] 0
dgij[11,204,203,0] 0
dgij[11,204,203,1] 0
dgij[11,204,205,0] 0
dgij[11,204,205,1] 0
dgij[11,204,207,0] 0
dgij[11,204,207,1] 0
dgij[11,204,307,0] 1.2521732039393498e+00
dgij[11,204,307,1] 0.936219735272033
dgij[11,204,405,0] 3.0893781397557163e+00
dgij[11,204,405,1] 8.6135752522527775e-01
dgij[11,204,505,0] 0.450107405184923
dgij[11,204,505,1] 2.0884863406524659e+00
dgij[11,205,101,0] 1.7146824640398961e-01
dgij[11,205,101,1] 8.6517994873351256e-01
dgij[11,205,103,0] 1.9418405343791534e+00
dgij[11,205,103,1] 2.4203985491854496e-01
dgij[11,205,106,0] 1.7146824640398961e-01
dgij[11,205,106,1] 8.6517994873352677e-01
dgij[11,205,107,0] 1.7146824640387592e-01
dgij[11,205,107,1] 8.6517994873351256e-01
dgij[11,205,202,0] 0
dgij[11,205,202,1] 0
dgij[11,205,203,0] 0
dgij[11,205,203,1] 0
dgij[11,205,204,0] 0
dgij[11,205,204,1] 0
dgij[11,205,207,0] 0
dgij[11,205,207,1] 0
dgij[11,205,307,0] 1.2521732039393711e+00
dgij[11,205,307,1] 9.3621973527204716e-01
dgij[11,205,405,0] 3.0893781397556879e+00
dgij[11,205,405,1] 9.6328441079165827e-02
dgij[11,205,505,0] 4.5010740518493719e-01
dgij[11,205,505,1] 2.0884863406524516e+00
dgij[11,207,101,0] 1.7146824640397185e-01
dgij[11,207,101,1] 8.6517994873349835e-01
dgij[11,207,103,0] 1.9418405343791392e+00
dgij[11,207,103,1] 2.4203985491853075e-01
dgij[11,207,106,0] 1.7146824640397540e-01
dgij[11,207,106,1] 8.6517994873351256e-01
dgij[11,207,107,0] 1.7146824640394698e-01
dgij[11,207,107,1] 8.6517994873349835e-01
dgij[11,207,202,0] 0
dgij[11,207,202,1] 0
dgij[11,207,203,0] 0
dgij[11,207,203,1] 0
dgij[11,207,204,0] 0
dgij[11,207,204,1] 0
dgij[11,207,205,0] 0
dgij[11,207,205,1] 0
dgij[11,207,307,0] 1.2521732039393356e+00
dgij[11,207,307,1] 0.936219735272033
dgij[11,207,405,0] 3.0893781397557021e+00
dgij[11,207,405,1] 7.3770769261138824e-01
dgij[11,207,505,0] 0.450107405184923
dgij[11,207,505,1] 2.0884863406524659e+00
dgij[11,307,101,0] 1.0807049575353851e+00
dgij[11,307,101,1] 0.0710397865385346
dgij[11,307,103,0] 3.1940137383184606e+00
dgij[11,307,103,1] 6.9417988035350220e-01
dgij[11,307,106,0] 1.0807049575353944e+00
dgij[11,307,106,1] 7.1039786538520389e-02
dgij[11,307,107,0] 1.0807049575355649e+00
dgij[11,307,107,1] 0.0710397865385346
dgij[11,307,202,0] 1.2521732039393414e+00
dgij[11,307,202,1] 0.936219735272033
dgij[11,307,203,0] 1.2521732039394919e+00
dgij[11,307,203,1] 9.3621973527204716e-01
dgij[11,307,204,0] 1.2521732039393485e+00
dgij[11,307,204,1] 0.936219735272033
dgij[11,307,205,0] 1.2521732039393711e+00
dgij[11,307,205,1] 9.3621973527204716e-01
dgij[11,307,207,0] 1.2521732039393414e+00
dgij[11,307,207,1] 0.936219735272033
dgij[11,307,405,0] 4.3415513436950661e+00
dgij[11,307,405,1] 1.0325481763512130e+00
dgij[11,307,505,0] 8.0206579875445527e-01
dgij[11,307,505,1] 3.0247060759244988e+00
dgij[11,405,101,0] 3.2608463861596881e+00
dgij[11,405,101,1] 9.6150838981267839e-01
dgij[11,405,103,0] 1.1475376053766126e+00
dgij[11,405,103,1] 3.3836829599771079e-01
dgij[11,405,106,0] 3.2608463861596775e+00
dgij[11,405,106,1] 9.6150838981269260e-01
dgij[11,405,107,0] 3.2608463861595638e+00
dgij[11,405,107,1] 9.6150838981267839e-01
dgij[11,405,202,0] 3.0893781397557305e+00
dgij[11,405,202,1] 9.6328441079180038e-02
dgij[11,405,203,0] 3.0893781397558087e+00
dgij[11,405,203,1] 9.6328441079165827e-02
dgij[11,405,204,0] 3.0893781397557163e+00
dgij[11,405,204,1] 9.6328441079180038e-02
dgij[11,405,205,0] 3.0893781397556879e+00
dgij[11,405,205,1] 9.6328441079165827e-02
dgij[11,405,207,0] 3.0893781397557021e+00
dgij[11,405,207,1] 9.6328441079180038e-02
dgij[11,405,307,0] 4.3415513436950661e+00
dgij[11,405,307,1] 1.0325481763512130e+00
dgij[11,405,505,0] 3.5394855449406180e+00
dgij[11,405,505,1] 1.9921578995732858e+00
dgij[11,505,101,0] 2.2968341195891284e-01
dgij[11,505,101,1] 3.2984758464958333e+00
dgij[11,505,103,0] 1.8836253688241982e+00
dgij[11,505,103,1] 2.6753357526808657e+00
dgij[11,505,106,0] 2.2968341195891639e-01
dgij[11,505,106,1] 3.2984758464958475e+00
dgij[11,505,107,0] 2.2968341195880271e-01
dgij[11,505,107,1] 3.2984758464958333e+00
dgij[11,505,202,0] 5.8215165554969417e-02
dgij[11,505,202,1] 2.4332958977623349e+00
dgij[11,505,203,0] 5.8215165554884152e-02
dgij[11,505,203,1] 2.4332958977623207e+00
dgij[11,505,204,0] 5.8215165554940995e-02
dgij[11,505,204,1] 2.4332958977623349e+00
dgij[11,505,205,0] 5.8215165554926784e-02
dgij[11,505,205,1] 2.4332958977623207e+00
dgij[11,505,207,0] 5.8215165554940995e-02
dgij[11,505,207,1] 2.4332958977623349e+00
dgij[11,505,307,0] 1.3103883694943192e+00
dgij[11,505,307,1] 3.3695156330343679e+00
dgij[11,505,405,0] 3.0311629742007540e+00
dgij[11,505,405,1] 2.3369674566831549e+00
pgij[11,101,103] 0
pgij[11,101,106] 0
pgij[11,101,107] 0
pgij[11,101,202] 0
pgij[11,101,203] 0
pgij[11,101,204] 0
pgij[11,101,205] 0
pgij[11,101,207] 0
pgij[11,101,307] 0
pgij[11,101,405] 0
pgij[11,101,505] 0
pgij[11,103,101] 0
pgij[11,103,106] 0
pgij[11,103,107] 0
pgij[11,103,202] 0
pgij[11,103,203] 0
pgij[11,103,204] 0
pgij[11,103,205] 0
pgij[11,103,207] 0
pgij[11,103,307] 0
pgij[11,103,405] 0
pgij[11,103,505] 0
pgij[11,106,101] 0
pgij[11,106,103] 0
pgij[11,106,107] 0
pgij[11,106,202] 0
pgij[11,106,203] 0
pgij[11,106,204] 0
pgij[11,106,205] 0
pgij[11,106,207] 0
pgij[11,106,307] 0
pgij[11,106,405] 0
pgij[11,106,505] 0
pgij[11,107,101] 0
pgij[11,107,103] 0
pgij[11,107,106] 0
pgij[11,107,202] 0
pgij[11,107,203] 0
pgij[11,107,204] 0
pgij[11,107,205] 0
pgij[11,107,207] 0
pgij[11,107,307] 0
pgij[11,107,405] 0
pgij[11,107,505] 0
pgij[11,202,101] 0
pgij[11,202,103] 0
pgij[11,202,106] 0
pgij[11,202,107] 0
pgij[11,202,203] 0
pgij[11,202,204] 0
pgij[11,202,205] 0
pgij[11,202,207] 0
pgij[11,202,307] 0
pgij[11,202,405] 0
pgij[11,202,505] 0
pgij[11,203,101] 0
pgij[11,203,103] 0
pgij[11,203,106] 0
pgij[11,203,107] 0
pgij[11,203,202] 0
pgij[11,203,204] 0
pgij[11,203,205] 0
pgij[11,203,207] 0
pgij[11,203,307] 0
pgij[11,203,405] 0
pgij[11,203,505] 0
pgij[11,204,101] 0
pgij[11,204,103] 0
pgij[11,204,106] 0
pgij[11,204,107] 0
pgij[11,204,202] 0
pgij[11,204,203] 0
pgij[11,204,205] 0
pgij[11,204,207] 0
pgij[11,204,307] 0
pgij[11,204,405] 0
pgij[11,204,505] 0
pgij[11,205,101] 0
pgij[11,205,103] 0
pgij[11,205,106] 0
pgij[11,205,107] 0
pgij[11,205,202] 0
pgij[11,205,203] 0
pgij[11,205,204] 0
pgij[11,205,207] 0
pgij[11,205,307] 0
pgij[11,205,405] 0
pgij[11,205,505] 0
pgij[11,207,101] 0
pgij[11,207,103] 0
pgij[11,207,106] 0
pgij[11,207,107] 0
pgij[11,207,202] 0
pgij[11,207,203] 0
pgij[11,207,204] 0
pgij[11,207,205] 0
pgij[11,207,307] 0
pgij[11,207,405] 0
pgij[11,207,505] 0
pgij[11,307,101] 0
pgij[11,307,103] 0
pgij[11,307,106] 0
pgij[11,307,107] 0
pgij[11,307,202] 0
pgij[11,307,203] 0
pgij[11,307,204] 0
pgij[11,307,205] 0
pgij[11,307,207] 0
pgij[11,307,405] 0
pgij[11,307,505] 0
pgij[11,405,101] 0
pgij[11,405,103] 0
pgij[11,405,106] 0
pgij[11,405,107] 0
pgij[11,405,202] 0
pgij[11,405,203] 0
pgij[11,405,204] 0
pgij[11,405,205] 0
pgij[11,405,207] 0
pgij[11,405,307] 0
pgij[11,405,505] 0
pgij[11,505,101] 0
pgij[11,505,103] 0
pgij[11,505,106] 0
pgij[11,505,107] 0
pgij[11,505,202] 0
pgij[11,505,203] 0
pgij[11,505,204] 0
pgij[11,505,205] 0
pgij[11,505,207] 0
pgij[11,505,307] 0
pgij[11,505,405] 0
dLR[11] 5.9811158883990085e+00
difLR[11,0] 4.3203862738867826e-01
difLR[11,1] 4.6250949456026547e-01
dRL[0,11] 5.5435216121784819e+01
dRL[0,21] 0
dRL[11,0] 5.5522338575716638e+01
dRL[11,21] 5.5522338575716638e+01
dRL[21,0] 0
dRL[21,11] 5.5435216121784819e+01
difRL[0,11,0] 3.5158458639604788e+01
difRL[0,11,1] 4.2859607755240418e+01
difRL[0,21,0] 0
difRL[0,21,1] 0
difRL[11,0,0] 3.4726420012216110e+01
difRL[11,0,1] 4.3322117249800684e+01
difRL[11,21,0] 3.4726420012216110e+01
difRL[11,21,1] 4.3322117249800684e+01
difRL[21,0,0] 0
difRL[21,0,1] 0
difRL[21,11,0] 3.5158458639604788e+01
difRL[21,11,1] 4.2859607755240418e+01
xL[0,0] 50
xL[0,1] 50
xL[11,0] 8.5158458639604788e+01
xL[11,1] 9.2859607755240418e+01
xL[21,0] 50
xL[21,1] 50
xR[0,0] 50
xR[0,1] 50
xR[11,0] 8.4726420012216110e+01
xR[11,1] 9.3322117249800684e+01
xR[21,0] 50
xR[21,1] 50
Rgi[11,101,0] 8.8767175025334922e+01
Rgi[11,101,1] 9.5638262347739371e+01
Rgi[11,103,0] 86.6538662445518
Rgi[11,103,1] 9.6261402441554338e+01
Rgi[11,106,0] 8.8767175025334922e+01
Rgi[11,106,1] 9.5638262347739357e+01
Rgi[11,107,0] 8.8767175025334836e+01
Rgi[11,107,1] 9.5638262347739371e+01
Rgi[11,202,0] 8.8595706778930960e+01
Rgi[11,202,1] 9.6503442296472869e+01
Rgi[11,203,0] 8.8595706778930889e+01
Rgi[11,203,1] 9.6503442296472883e+01
Rgi[11,204,0] 8.8595706778930946e+01
Rgi[11,204,1] 9.6503442296472869e+01
Rgi[11,205,0] 8.8595706778930932e+01
Rgi[11,205,1] 9.6503442296472883e+01
Rgi[11,207,0] 8.8595706778930946e+01
Rgi[11,207,1] 9.6503442296472869e+01
Rgi[11,307,0] 89.8478799828703
Rgi[11,307,1] 9.5567222561200836e+01
Rgi[11,405,0] 8.5506328639175237e+01
Rgi[11,405,1] 9.6599770737552049e+01
Rgi[11,505,0] 8.9045814184115869e+01
Rgi[11,505,1] 9.8591928637125335e+01
rhogi[11,101] 9.9999999999997158e-01
rhogi[11,103] 3.5191403380642328e-01
rhogi[11,106] 1.0000000000000568e+00
rhogi[11,107] 9.9999999999977263e-01
rhogi[11,202] 9.9999999999997158e-01
rhogi[11,203] 1
rhogi[11,204] 9.9999999999999289e-01
rhogi[11,205] 9.9999999999998224e-01
rhogi[11,207] 9.9999999999998579e-01
rhogi[11,307] 1.3500311979441904e-13
rhogi[11,405] 9.9999999999998934e-01
rhogi[11,505] 7.9441115737765244e-01
Lgi[11,101,0] 8.8595706778930932e+01
Lgi[11,101,1] 9.6503442296472855e+01
Lgi[11,103,0] 8.8767175025334950e+01
Lgi[11,103,1] 9.5638262347739371e+01
Lgi[11,106,0] 8.8767175025334922e+01
Lgi[11,106,1] 9.5638262347739357e+01
Lgi[11,107,0] 8.8767175025334836e+01
Lgi[11,107,1] 9.5638262347739371e+01
Lgi[11,202,0] 8.8595706778930960e+01
Lgi[11,202,1] 9.6503442296472869e+01
Lgi[11,203,0] 8.5506328639175081e+01
Lgi[11,203,1] 9.6599770737552063e+01
Lgi[11,204,0] 8.8595706778930946e+01
Lgi[11,204,1] 9.6503442296472869e+01
Lgi[11,205,0] 8.8595706778930932e+01
Lgi[11,205,1] 9.6503442296472883e+01
Lgi[11,207,0] 8.8595706778930946e+01
Lgi[11,207,1] 9.6503442296472869e+01
Lgi[11,307,0] 89.8478799828703
Lgi[11,307,1] 9.5567222561200836e+01
Lgi[11,405,0] 8.5506328639175237e+01
Lgi[11,405,1] 9.6599770737552049e+01
Lgi[11,505,0] 88.537491613376
Lgi[11,505,1] 98.9367381942352
landagi[11,101] -1.4210854715202004e-14
landagi[11,103] 9.9999999999998579e-01
landagi[11,106] 1.0000000000000568e+00
landagi[11,107] 9.9999999999977263e-01
landagi[11,202] 9.9999999999997158e-01
landagi[11,203] 0
landagi[11,204] 9.9999999999999289e-01
landagi[11,205] 9.9999999999998224e-01
landagi[11,207] 9.9999999999998579e-01
landagi[11,307] 1.3500311979441904e-13
landagi[11,405] 9.9999999999998934e-01
landagi[11,505] 5.5784914157526089e-01
mingi[11,101] 0
mingi[11,103] 6.4808596619356251e-01
mingi[11,106] 0
mingi[11,107] 0
mingi[11,202] 0
mingi[11,203] 0
mingi[11,204] 0
mingi[11,205] 0
mingi[11,207] 0
mingi[11,307] 0
mingi[11,405] 0
mingi[11,505] 0
maxgi[11,101] 9.9999999999998579e-01
maxgi[11,103] 0
maxgi[11,106] 0
maxgi[11,107] 0
maxgi[11,202] 0
maxgi[11,203] 1
maxgi[11,204] 0
maxgi[11,205] 0
maxgi[11,207] 0
maxgi[11,307] 0
maxgi[11,405] 0
maxgi[11,505] 2.3656201580239156e-01
entrygi[11,101] 0
entrygi[11,103] 1
entrygi[11,106] 1
entrygi[11,107] 1
entrygi[11,202] 0
entrygi[11,203] 0
entrygi[11,204] 0
entrygi[11,205] 0
entrygi[11,207] 0
entrygi[11,307] 0
entrygi[11,405] 0
entrygi[11,505] 0
mugi[11,101] 1
mugi[11,103] 1
mugi[11,106] 0
mugi[11,107] 0
mugi[11,202] 1
mugi[11,203] 1
mugi[11,204] 1
mugi[11,205] 1
mugi[11,207] 0
mugi[11,307] 0
mugi[11,405] 1
mugi[11,505] 0
pgi[11,101] 9.9999999999998579e-01
pgi[11,103] 6.4808596619356251e-01
pgi[11,106] 0
pgi[11,107] 0
pgi[11,202] 0
pgi[11,203] 1
pgi[11,204] 0
pgi[11,205] 0
pgi[11,207] 0
pgi[11,307] 0
pgi[11,405] 0
pgi[11,505] 0
alphagi[11,101] 9.9999999999998579e-01
alphagi[11,103] 6.4808596619356251e-01
alphagi[11,106] 0
alphagi[11,107] 0
alphagi[11,202] 0
alphagi[11,203] 1
alphagi[11,204] 0
alphagi[11,205] 0
alphagi[11,207] 0
alphagi[11,307] 0
alphagi[11,405] 0
alphagi[11,505] 2.3656201580239156e-01
